
Gurobi 9.5.1 (linux64) logging started Mon Jul  4 19:30:49 2022

Set parameter LogFile to value "../results/logs/log_ca-citeseer_3_250_2022_07_04_17_11.log"
Gurobi Optimizer version 9.5.1 build v9.5.1rc2 (linux64)
Thread count: 8 physical cores, 8 logical processors, using up to 8 threads
Optimize a model with 25953 rows, 454640 columns and 190023 nonzeros
Model fingerprint: 0xba9a65b8
Variable types: 0 continuous, 454640 integer (454640 binary)
Coefficient statistics:
  Matrix range     [1e+00, 3e+00]
  Objective range  [1e+00, 1e+00]
  Bounds range     [1e+00, 1e+00]
  RHS range        [1e+00, 2e+02]
Found heuristic solution: objective 152966.00000
Presolve removed 13423 rows and 439651 columns
Presolve time: 0.45s
Presolved: 12530 rows, 14989 columns, 44002 nonzeros
Found heuristic solution: objective 153220.00000
Variable types: 0 continuous, 14989 integer (14113 binary)

Root relaxation: objective 1.540690e+05, 7149 iterations, 0.17 seconds (0.24 work units)

    Nodes    |    Current Node    |     Objective Bounds      |     Work
 Expl Unexpl |  Obj  Depth IntInf | Incumbent    BestBd   Gap | It/Node Time

     0     0 154069.027    0 1031 153220.000 154069.027  0.55%     -    0s
H    0     0                    153567.00000 154069.027  0.33%     -    0s
H    0     0                    153568.00000 154069.027  0.33%     -    0s
H    0     0                    153571.00000 154069.027  0.32%     -    0s
H    0     0                    153651.00000 154069.027  0.27%     -    1s
     0     0 153805.015    0  298 153651.000 153805.015  0.10%     -    1s
H    0     0                    153749.00000 153805.015  0.04%     -    1s
H    0     0                    153750.00000 153800.546  0.03%     -    1s
     0     0 153775.702    0  272 153750.000 153775.702  0.02%     -    1s
     0     0 153775.702    0  272 153750.000 153775.702  0.02%     -    1s
     0     0 153774.289    0  110 153750.000 153774.289  0.02%     -    1s
     0     0 153772.399    0   82 153750.000 153772.399  0.01%     -    1s
H    0     0                    153753.00000 153772.399  0.01%     -    1s
     0     0 153772.399    0   83 153753.000 153772.399  0.01%     -    1s
H    0     0                    153755.00000 153772.399  0.01%     -    2s
H    0     0                    153756.00000 153772.399  0.01%     -    2s
H    0     0                    153760.00000 153769.402  0.01%     -    2s
     0     0 153769.402    0   49 153760.000 153769.402  0.01%     -    2s
     0     0 153769.118    0   55 153760.000 153769.118  0.01%     -    2s
     0     0 153769.084    0   56 153760.000 153769.084  0.01%     -    2s
     0     0 153767.227    0   43 153760.000 153767.227  0.00%     -    2s
     0     0 153765.472    0   33 153760.000 153765.472  0.00%     -    2s
     0     0 153765.382    0   37 153760.000 153765.382  0.00%     -    2s
     0     0 153765.176    0   26 153760.000 153765.176  0.00%     -    2s
H    0     0                    153764.00000 153765.176  0.00%     -    3s
H    0     0                    153765.00000 153765.176  0.00%     -    3s
     0     0 153765.176    0   26 153765.000 153765.176  0.00%     -    3s

Cutting planes:
  Gomory: 132
  Cover: 6
  Implied bound: 85
  MIR: 574
  StrongCG: 19
  GUB cover: 203
  Zero half: 69
  RLT: 46
  Relax-and-lift: 18

Explored 1 nodes (8585 simplex iterations) in 3.05 seconds (2.13 work units)
Thread count was 8 (of 8 available processors)

Solution count 10: 153765 153764 153760 ... 153571

Optimal solution found (tolerance 0.00e+00)
Best objective 1.537650000000e+05, best bound 1.537650000000e+05, gap 0.0000%
